971
1   1   62   91   0 18 52 31 10 82 83 0
1   2   155  179  0 76 80 55 25 39 67 23 22 41 42 16 61 84 0
1   3   76   144  0 60 96 95 87 57 15 43 14 91 85 0
1   4   148  189  0 7 62 63 90 32 20 66 65 71 35 9 51 30 70 0
1   5   31   105  0 99 59 92 37 98 93 5 0
2   1   146  196  0 12 28 48 47 36 49 64 11 19 88 69 1 0
2   2   57   114  0 54 4 56 75 74 72 73 21 0
2   3   110  183  0 24 29 34 78 81 33 50 27 6 94 13 58 26 0
2   4   160  171  0 53 89 8 46 45 17 86 38 44 100 97 2 40 0
2   5   26   86   0 68 79 3 77 0